Maximize
    obj: 7 x1 + 8 x2 - 2 x3 - 5 x4
Subject To
    c1: x1 + 900 x2 + 5 x3 - 6 x4 < 34
    c2: 3 x1 - x2 + 0 x3 + 0 x4 >= 5
    c3: 4 x1 + 5 x2 + 0 x3 + 0 x4 <= 104
    c4: 7 x1 - 9 x2 - 72 x3 - 98 x4 <= 57
    c5: 17 x1 - 29 x2 - 34 x3 - 54 x4 <= 579
Bounds
    0 <= x1 <= 5
    x2 >= 8
    -inf < x3 < inf
    x4 <= 89
End
